Water Network: ../data/d9_HG_SP_4_2.dat
*******************************************************************************

-------------------------------- Solving with IPOPT --------------------------
min_demand: 0
max_demand: 122
max_flow: 863.81996
eps: 5.804378621790728e-12 

Ipopt solver outputs: 

Ipopt 3.14.13: outlev = 0
expect_infeasible_problem = yes
tol = 1e-9
bound_relax_factor=0
bound_push = 0.01
bound_frac = 0.01
nlp_scaling_method = none


******************************************************************************
This program contains Ipopt, a library for large-scale nonlinear optimization.
 Ipopt is released as open source code under the Eclipse Public License (EPL).
         For more information visit https://github.com/coin-or/Ipopt
******************************************************************************

 
Ipopt 3.14.13: Optimal Solution Found

suffix ipopt_zU_out OUT;
suffix ipopt_zL_out OUT;
total_cost: 9057439.451607745 

*******************************************************************************

*******************************************************************************

Constraints violation:


Sum of constraints violation: 2.8572644348328224e-12
*******************************************************************************

*******************************************************************************

Constraint 2 violations:


Sum of violation of original con2: 1.7763568394002505e-14
Sum of violation of approx con2: 1.7763568394002505e-14
*******************************************************************************

Absolute and relative violations between original and approximation constraint 2:


Con2 sum of absolute violation: 1.9861760779805672e-07
Con2 sum of relative violation: 0.12182742696217382
*******************************************************************************

Total cost using ipopt: 9057439.451607745
IPOPT solve time: 127.42 seconds
*******************************************************************************


-------------------------------- Solving with gurobi --------------------------
min_demand: 0.0
max_demand: 0.122
max_flow: 0.86381996
eps: 5.804378621790728e-12 

Gurobi 12.0.1: Set parameter LogToConsole to value 1
  tech:outlev = 1
Set parameter Presolve to value 1
  pre:solve = 1
Set parameter TimeLimit to value 3600
  lim:time = 3600
Set parameter Method to value 2
  alg:method = 2
  alg:start = 1
Set parameter BarConvTol to value 1e-09
  bar:convtol = 1e-09
Set parameter FeasibilityTol to value 1e-05
  alg:feastol = 1e-05
  sol:chk:feastolrel = 0
Set parameter MIPGap to value 1e-09
  mip:gap = 1e-09
Set parameter InfUnbdInfo to value 1
Gurobi Optimizer version 12.0.1 build v12.0.1rc0 (linux64 - "Debian GNU/Linux 12 (bookworm)")

CPU model: Intel(R) Xeon(R) Gold 6130 CPU @ 2.10GHz, instruction set [SSE2|AVX|AVX2|AVX512]
Thread count: 32 physical cores, 32 logical processors, using up to 32 threads

Non-default parameters:
TimeLimit  3600
FeasibilityTol  1e-05
MIPGap  1e-09
Method  2
BarConvTol  1e-09
InfUnbdInfo  1
Presolve  1

Optimize a model with 515 rows, 3922 columns and 3602 nonzeros
Model fingerprint: 0x8c66d490
Model has 174 general nonlinear constraints (10788 nonlinear terms)
Variable types: 3922 continuous, 0 integer (0 binary)
Coefficient statistics:
  Matrix range     [1e-11, 6e+01]
  Objective range  [1e+02, 3e+03]
  Bounds range     [8e-09, 8e+16]
  RHS range        [2e-03, 4e+02]
Warning: Model contains large bounds
         Consider reformulating model or setting NumericFocus parameter
         to avoid numerical issues.

User MIP start produced solution with objective 9.05744e+06 (0.03s)
Loaded user MIP start with objective 9.05744e+06

Presolve model has 174 nlconstr
Added 9570 variables to disaggregate expressions.
Presolve removed 33 rows and 1206 columns
Presolve time: 0.76s
Presolved: 40154 rows, 12287 columns, 101819 nonzeros
Presolved model has 4524 bilinear constraint(s)
Presolved model has 2436 nonlinear constraint(s)

Solving non-convex MINLP

Variable types: 12287 continuous, 0 integer (0 binary)
  NLP heuristic elapsed time = 5.09s
  NLP heuristic elapsed time = 10.10s
Root barrier log...

Ordering time: 0.00s

Barrier statistics:
 AA' NZ     : 5.460e+02
 Factor NZ  : 2.903e+03
 Factor Ops : 3.918e+04 (less than 1 second per iteration)
 Threads    : 1

                  Objective                Residual
Iter       Primal          Dual         Primal    Dual     Compl     Time
   0   1.18111200e+16 -7.50082451e+20  1.20e+16 0.00e+00  1.91e+13    18s
   1   1.18111771e+16 -3.40939922e+21  1.20e+16 1.82e-12  2.28e+13    18s
   2   1.18124264e+16 -2.86214974e+22  1.20e+16 2.91e-11  5.21e+13    18s
   3   1.18246597e+16 -2.72472941e+24  1.20e+16 2.79e-09  2.94e+15    18s
   4   1.18111200e+16 -7.50082451e+21  1.20e+16 0.00e+00  8.97e+13    18s
   5   1.18113025e+16 -3.42887646e+22  1.20e+16 4.37e-11  1.28e+14    18s
   6   1.18153146e+16 -2.95811014e+23  1.20e+16 6.98e-10  4.31e+14    18s
   7   1.18614064e+16 -2.62611533e+25  1.20e+16 2.98e-08  2.82e+16    18s
   8   1.20917078e+16 -2.05240924e+26  1.20e+16 6.91e+02  2.12e+17    18s
   9   1.22910048e+16 -1.70975565e+27  1.20e+16 2.86e-06  1.74e+18    18s
  10   1.24442771e+16 -1.69208942e+28  1.20e+16 3.05e-05  1.70e+19    18s
  11   1.20151727e+16 -2.59476173e+28  1.20e+16 1.91e-06  2.60e+19    18s
  12   1.16826165e+16 -2.96795789e+28  1.20e+16 6.10e-05  2.97e+19    18s
  13   1.14817476e+16 -3.31251879e+28  1.20e+16 6.10e-05  3.31e+19    18s
  14   1.13886474e+16 -3.42995489e+29  1.20e+16 1.22e-04  3.40e+20    18s

Barrier performed 14 iterations in 17.61 seconds (0.44 work units)
Numerical trouble encountered

Model may be infeasible or unbounded.  Consider using the
homogeneous algorithm (through parameter 'BarHomogeneous')


Root simplex log...

Iteration    Objective       Primal Inf.    Dual Inf.      Time
       0    1.3419698e+06   6.597027e+15   0.000000e+00     18s
      83    1.3419698e+06   0.000000e+00   0.000000e+00     18s
    2346    1.3419698e+06   0.000000e+00   0.000000e+00     18s
Extra simplex iterations after uncrush: 2263

Root relaxation: objective 1.341970e+06, 2346 iterations, 0.39 seconds (0.02 work units)

    Nodes    |    Current Node    |     Objective Bounds      |     Work
 Expl Unexpl |  Obj  Depth IntInf | Incumbent    BestBd   Gap | It/Node Time

     0     0 1341969.78    0 2849 9057439.45 1341969.78  85.2%     -   17s
     0     0 1341969.78    0 2872 9057439.45 1341969.78  85.2%     -   18s
     0     0 1341969.78    0 2872 9057439.45 1341969.78  85.2%     -   19s
     0     0 1341969.78    0 2852 9057439.45 1341969.78  85.2%     -   19s
     0     0 1341969.78    0 2856 9057439.45 1341969.78  85.2%     -   19s
     0     0 1341969.78    0 2860 9057439.45 1341969.78  85.2%     -   19s
     0     0 1341969.78    0 2610 9057439.45 1341969.78  85.2%     -   26s
     0     2 1341969.78    0 2610 9057439.45 1341969.78  85.2%     - 1020s
     1     5 1342101.98    1 2638 9057439.45 1341969.78  85.2%   119 1075s
     3     8 1342101.98    2 2564 9057439.45 1341969.78  85.2%   174 1926s
     7    16 1342101.98    3 2526 9057439.45 1341969.78  85.2%   229 2084s
    15    32 1342101.98    4 2496 9057439.45 1341969.78  85.2%   286 2487s
    31    64 1342101.98    5 2557 9057439.45 1341969.78  85.2%   275 2737s
    63    96 1342101.98    6 2512 9057439.45 1341969.78  85.2%   479 2758s
    95   266 1342101.98    7 2387 9057439.45 1341969.78  85.2%   406 3149s
   265  1344 1342101.98    9 2387 9057439.45 1341969.78  85.2%   163 3229s
  1385  4685 1342101.98   26 2367 9057439.45 1341969.78  85.2%  67.7 3336s
  4862  5985 1341969.79   27 2441 9057439.45 1341969.78  85.2%  41.9 3439s
  6250  7300 1341969.78   38 2267 9057439.45 1341969.78  85.2%  52.5 3494s
  7689  8601 1341969.78   64 1993 9057439.45 1341969.78  85.2%  53.2 3512s
  9220  9760 1341969.78   95 1745 9057439.45 1341969.78  85.2%  52.1 3531s
 11273 10905 infeasible  127      9057439.45 1341969.78  85.2%  50.3 3562s
 13450 12006 infeasible  169      9057439.45 1341969.78  85.2%  47.0 3580s
  NLP heuristic elapsed time = 5.00s
 15973 12008 1341969.78  127    0 9057439.45 1341969.78  85.2%  42.5 3587s

Cutting planes:
  RLT: 55

Explored 15989 nodes (690181 simplex iterations) in 3600.16 seconds (77.76 work units)
Thread count was 32 (of 32 available processors)

Solution count 1: 9.05744e+06 

Time limit reached
Best objective 9.057439451608e+06, best bound 1.341969780007e+06, gap 85.1838%
Gurobi 12.0.1: time limit, feasible solution; objective 9057439.452
690181 simplex iterations
77 barrier iterations
15989 branching nodes
absmipgap=7.71547e+06, relmipgap=0.851838
*******************************************************************************

Constraints violation:


Sum of constraints violation: 4.940684279510215e-12
*******************************************************************************

*******************************************************************************

Constraint 2 violations:


Sum of violation of original con2: 1.5987211554602254e-14
Sum of violation of approx con2: 1.4210854715202004e-14
*******************************************************************************

Absolute and relative violations between original and approximation constraint 2:


Con2 sum of absolute violation: 1.9861760673352033e-07
Con2 sum of relative violation: 0.12182742696217351
*******************************************************************************

Total cost using gurobi: 9057439.451607745
gurobi solve time: 3600.82 seconds
*******************************************************************************

